43833
1 0 1 0 0 1 1 1 1 0 1 1 1 1 1 0 0 1 0 1 1 1 0 1 1 1 0 1 1 1 
7 19 2 27 2 12 21 27 27 28 29 28 13 13 28 7 13 20 24 0 11 24 5 24 10 27 27 19 29 2 19 19 19 21 27 6 20 8 24 21 7 8 6 29 8 19 13 21 19 14 24 24 2 21 8 6 11 8 7 25 29 0 7 8 13 11 5 14 28 25 7 12 6 8 23 23 20 23 8 24 10 0 8 25 29 13 6 5 27 7 28 6 25 25 2 13 11 6 0 28 28 21 25 7 29 0 29 24 27 13 19 29 27 12 12 8 28 7 17 8 14 11 17 19 19 21 2 11 19 17 28 24 25 20 23 8 13 13 28 10 12 27 11 11 25 5 24 21 27 25 24 17 23 0 8 11 2 21 13 13 13 27 10 24 5 27 5 29 13 21 5 20 19 14 29 2 0 10 29 10 5 21 2 19 12 8 28 23 0 21 2 21 6 29 7 12 7 21 10 19 
